SDVRP instances/custom_instances/p04_4_split0.vrp
NAME:p04_4_split
BEST_KNOWN: 0
COMMENT: 0
DIMENSION: 720
CAPACITY: 200
EDGE_WEIGHT_FORMAT: FUNCTION
EDGE_WEIGHT_TYPE: EXACT_2D
NODE_COORD_SECTION
1 0.00000 0.00000
2 35 -38
3 35 -38
4 35 -38
5 35 14
6 35 14
7 35 14
8 35 14
9 35 14
10 9 -32
11 9 -32
12 9 -32
13 9 -32
14 -46 42
15 -46 42
16 -46 42
17 -5 33
18 -45 15
19 -45 15
20 -45 15
21 -45 15
22 -45 15
23 -45 15
24 -45 15
25 17 -18
26 17 -18
27 17 -18
28 17 -18
29 17 -18
30 14 -12
31 14 -12
32 14 -12
33 36 -32
34 36 -32
35 36 -32
36 -50 -31
37 -50 -31
38 -50 -31
39 -50 -31
40 -50 -31
41 -27 8
42 -27 8
43 -27 8
44 -27 8
45 -27 8
46 -27 8
47 -43 -25
48 -43 -25
49 -43 -25
50 45 -9
51 45 -9
52 45 -9
53 45 -9
54 45 -9
55 37 -39
56 37 -39
57 -10 25
58 -10 25
59 48 41
60 48 41
61 48 41
62 48 41
63 48 41
64 48 41
65 -29 13
66 -29 13
67 -29 13
68 -29 13
69 -31 -24
70 -31 -24
71 -3 9
72 -3 9
73 -3 9
74 -3 9
75 -3 9
76 -36 -46
77 -36 -46
78 -36 -46
79 32 30
80 32 30
81 32 30
82 32 30
83 -24 -46
84 -24 -46
85 -24 -46
86 -24 -46
87 -24 -46
88 -24 -46
89 -24 -46
90 15 34
91 15 34
92 15 34
93 15 34
94 15 34
95 15 34
96 15 34
97 44 10
98 44 10
99 -6 -2
100 -6 -2
101 -6 -2
102 -6 -2
103 12 -12
104 12 -12
105 12 -12
106 12 -12
107 12 -12
108 12 -12
109 12 -12
110 2 -1
111 2 -1
112 2 -1
113 2 -1
114 2 -1
115 2 -1
116 32 -3
117 32 -3
118 32 -3
119 32 -3
120 -2 5
121 -2 5
122 -2 5
123 -2 5
124 -2 5
125 -2 5
126 18 -25
127 18 -25
128 32 30
129 32 30
130 32 30
131 32 30
132 32 30
133 32 30
134 32 30
135 4 32
136 4 32
137 4 32
138 4 32
139 4 32
140 4 32
141 31 7
142 31 7
143 31 7
144 31 7
145 31 7
146 31 1
147 31 1
148 31 1
149 31 1
150 31 1
151 31 1
152 -1 -30
153 -1 -30
154 -1 -30
155 -1 -30
156 -1 -30
157 -1 -30
158 -1 -30
159 47 -35
160 47 -35
161 47 -35
162 47 -35
163 47 -35
164 47 -35
165 44 15
166 44 15
167 44 15
168 44 15
169 44 15
170 -32 -17
171 -32 -17
172 -32 -17
173 -32 -17
174 -32 -17
175 -32 -17
176 27 49
177 27 49
178 27 49
179 27 49
180 27 49
181 27 49
182 27 -49
183 27 -49
184 27 -49
185 -45 -18
186 -45 -18
187 -45 -18
188 -45 -18
189 44 0
190 44 0
191 44 0
192 44 0
193 31 48
194 31 48
195 31 48
196 31 48
197 31 48
198 31 48
199 0 26
200 0 26
201 6 -24
202 6 -24
203 6 -24
204 6 -24
205 -44 30
206 -44 30
207 -44 30
208 -44 30
209 -44 30
210 -7 8
211 -7 8
212 -7 8
213 -29 27
214 -29 27
215 -29 27
216 14 -13
217 14 -13
218 14 -13
219 14 -13
220 14 -13
221 14 -13
222 14 -13
223 15 26
224 15 26
225 15 26
226 15 26
227 15 26
228 15 26
229 15 26
230 15 26
231 -4 -44
232 -4 -44
233 -4 -44
234 -4 -44
235 -4 -44
236 -4 -44
237 45 22
238 45 22
239 45 22
240 43 4
241 43 4
242 39 -37
243 39 -37
244 39 -37
245 -46 37
246 -46 37
247 -46 37
248 -46 37
249 -46 37
250 -46 37
251 -48 -26
252 -48 -26
253 4 18
254 4 18
255 4 18
256 4 18
257 28 -27
258 28 -27
259 28 -27
260 28 -27
261 50 -15
262 50 -15
263 50 -15
264 40 -24
265 40 -24
266 40 -24
267 40 -24
268 40 -24
269 40 -24
270 40 -24
271 40 -24
272 -18 37
273 -18 37
274 -18 37
275 -18 37
276 -18 37
277 -18 37
278 -18 37
279 -38 18
280 -38 18
281 -38 18
282 -38 18
283 -38 18
284 -38 18
285 40 10
286 40 10
287 40 10
288 40 10
289 13 47
290 13 47
291 13 47
292 13 47
293 13 47
294 13 47
295 13 47
296 13 47
297 -18 -47
298 -18 -47
299 -36 47
300 -36 47
301 -36 47
302 9 -20
303 9 -20
304 9 -20
305 9 -20
306 9 -20
307 9 -20
308 9 -20
309 -29 -6
310 -29 -6
311 -29 -6
312 -29 -6
313 -29 -6
314 -14 -19
315 -14 -19
316 -14 -19
317 -14 -19
318 -14 -19
319 -14 -19
320 -36 -26
321 -36 -26
322 -36 -26
323 -36 -26
324 -36 -26
325 -36 -26
326 -7 46
327 -7 46
328 13 17
329 13 17
330 13 17
331 13 17
332 0 -28
333 0 -28
334 0 -28
335 0 -28
336 0 -28
337 0 -28
338 32 18
339 32 18
340 32 18
341 32 18
342 32 18
343 32 18
344 -41 3
345 -41 3
346 -41 3
347 -41 3
348 34 -12
349 34 -12
350 34 -12
351 34 -12
352 34 -12
353 24 13
354 24 13
355 24 13
356 -1 -1
357 -1 -1
358 -1 -1
359 -1 -1
360 -1 -1
361 -1 -1
362 -1 -1
363 -43 -34
364 -43 -34
365 -43 -34
366 -43 -34
367 -43 -34
368 -43 -34
369 -43 -34
370 16 28
371 16 28
372 16 28
373 16 28
374 16 28
375 24 -48
376 24 -48
377 24 -48
378 30 41
379 30 41
380 30 41
381 -10 -9
382 -10 -9
383 -10 -9
384 -10 -9
385 -10 -9
386 -32 8
387 -32 8
388 -32 8
389 -32 8
390 -32 8
391 -45 -11
392 -45 -11
393 -45 -11
394 -45 -11
395 -45 -11
396 -45 -11
397 -45 -11
398 37 6
399 37 6
400 15 -44
401 15 -44
402 15 -44
403 15 -44
404 15 -44
405 -12 37
406 -12 37
407 -12 37
408 -12 37
409 -12 37
410 -29 -25
411 -29 -25
412 -29 -25
413 -29 -25
414 -29 -25
415 -40 -17
416 -40 -17
417 -40 -17
418 -40 -17
419 -40 -17
420 -40 -17
421 -33 -20
422 -33 -20
423 -33 -20
424 -33 -20
425 -33 -20
426 -33 -20
427 0 -5
428 0 -5
429 0 -5
430 0 -5
431 0 -5
432 -13 -48
433 -13 -48
434 -13 -48
435 -13 -48
436 -13 -48
437 -28 20
438 -28 20
439 -28 20
440 -6 -17
441 -6 -17
442 -6 -17
443 -6 -17
444 -6 -17
445 -6 -17
446 -6 -17
447 -18 3
448 -18 3
449 -18 3
450 -18 3
451 -23 -30
452 -23 -30
453 -23 -30
454 -23 -30
455 -23 -30
456 14 46
457 14 46
458 14 46
459 14 46
460 14 46
461 14 46
462 17 -8
463 17 -8
464 17 -8
465 17 -8
466 17 -8
467 41 -5
468 41 -5
469 -42 31
470 -42 31
471 -42 31
472 -42 31
473 -42 31
474 -42 31
475 -40 13
476 -40 13
477 -40 13
478 -40 13
479 -40 13
480 -40 13
481 -30 32
482 -30 32
483 -30 32
484 -30 32
485 -30 32
486 -45 -15
487 -45 -15
488 -45 -15
489 -45 -15
490 -45 -15
491 -45 -15
492 -45 -15
493 5 46
494 5 46
495 5 46
496 5 46
497 26 -43
498 26 -43
499 26 -43
500 39 45
501 39 45
502 39 45
503 39 45
504 39 45
505 39 45
506 37 48
507 37 48
508 37 48
509 29 41
510 29 41
511 29 41
512 29 41
513 29 41
514 29 41
515 29 41
516 43 -48
517 43 -48
518 43 -48
519 43 -48
520 43 -48
521 -2 40
522 -2 40
523 -2 40
524 -2 40
525 -2 40
526 -2 40
527 -2 40
528 -2 40
529 12 44
530 12 44
531 12 44
532 12 44
533 12 44
534 -16 13
535 -16 13
536 -16 13
537 -16 13
538 -16 13
539 -16 13
540 -50 -24
541 -50 -24
542 -50 -24
543 -50 -24
544 -50 -24
545 -50 -24
546 -50 -24
547 -50 -24
548 31 -39
549 31 -39
550 31 -39
551 31 -39
552 31 -39
553 35 8
554 -5 -29
555 -5 -29
556 -5 -29
557 -7 -26
558 -7 -26
559 -7 -26
560 -7 -26
561 -7 -26
562 -7 -26
563 -7 -26
564 12 -46
565 12 -46
566 12 -46
567 12 -46
568 -1 -36
569 -1 -36
570 -1 -36
571 -1 -36
572 -1 -36
573 -1 -36
574 -24 -50
575 -24 -50
576 -24 -50
577 -24 -50
578 -15 46
579 -15 46
580 -17 26
581 -17 26
582 -17 26
583 -17 26
584 -17 26
585 -17 26
586 -17 26
587 -17 26
588 -39 -21
589 -39 -21
590 -39 -21
591 -39 -21
592 -39 -21
593 -26 49
594 -26 49
595 -26 49
596 -26 49
597 -26 49
598 -30 8
599 -30 8
600 -30 8
601 24 36
602 24 36
603 24 36
604 24 36
605 24 36
606 21 10
607 21 10
608 21 10
609 21 10
610 33 -10
611 33 -10
612 33 -10
613 33 -10
614 4 24
615 4 24
616 4 24
617 4 24
618 28 -27
619 28 -27
620 28 -27
621 28 -27
622 28 -27
623 28 -27
624 9 29
625 9 29
626 9 29
627 9 29
628 9 29
629 40 -41
630 40 -41
631 40 -41
632 40 -41
633 40 -41
634 40 -41
635 40 -41
636 16 23
637 16 23
638 16 23
639 16 23
640 -34 -26
641 -34 -26
642 -34 -26
643 -34 -26
644 -34 -26
645 -34 -26
646 -22 -26
647 -22 -26
648 -36 47
649 -36 47
650 -36 47
651 -36 47
652 -36 47
653 -36 47
654 -36 47
655 -36 47
656 17 -45
657 17 -45
658 17 -45
659 17 -45
660 17 -45
661 17 -45
662 17 -45
663 -37 40
664 -37 40
665 -37 40
666 46 -46
667 46 -46
668 46 -46
669 46 -46
670 46 -46
671 46 -46
672 40 -20
673 40 -20
674 40 -20
675 40 -20
676 -14 -2
677 -14 -2
678 -14 -2
679 -14 -2
680 -14 -2
681 -50 37
682 -50 37
683 -50 37
684 -50 37
685 -50 37
686 -50 37
687 -50 37
688 -28 -18
689 -28 -18
690 -28 -18
691 -28 -18
692 -28 -18
693 -28 -18
694 -41 18
695 -41 18
696 -41 18
697 -41 18
698 -41 18
699 -29 -25
700 -29 -25
701 -29 -25
702 13 -1
703 13 -1
704 27 -17
705 27 -17
706 27 -17
707 27 -17
708 -37 -46
709 -37 -46
710 -37 -46
711 -37 -46
712 -37 -46
713 -37 -46
714 38 32
715 38 32
716 38 32
717 38 32
718 38 32
719 38 32
720 38 32
DEMAND_SECTION
1 0
2 20
3 10
4 1
5 40
6 10
7 2
8 2
9 2
10 20
11 10
12 2
13 1
14 40
15 40
16 10
17 40
18 40
19 40
20 2
21 2
22 2
23 2
24 1
25 40
26 40
27 10
28 2
29 2
30 40
31 20
32 1
33 40
34 2
35 2
36 40
37 10
38 2
39 2
40 1
41 40
42 40
43 2
44 2
45 2
46 2
47 40
48 40
49 20
50 40
51 40
52 10
53 2
54 1
55 40
56 1
57 20
58 10
59 20
60 10
61 2
62 2
63 2
64 2
65 20
66 2
67 2
68 2
69 40
70 1
71 20
72 2
73 2
74 2
75 2
76 40
77 20
78 10
79 20
80 10
81 2
82 1
83 40
84 20
85 2
86 2
87 2
88 2
89 1
90 40
91 40
92 10
93 2
94 2
95 2
96 2
97 40
98 10
99 40
100 10
101 2
102 1
103 40
104 20
105 2
106 2
107 2
108 2
109 1
110 40
111 20
112 2
113 2
114 2
115 1
116 40
117 2
118 2
119 2
120 40
121 20
122 2
123 2
124 2
125 2
126 40
127 1
128 40
129 40
130 2
131 2
132 2
133 2
134 1
135 40
136 20
137 10
138 2
139 2
140 2
141 40
142 2
143 2
144 2
145 2
146 40
147 20
148 10
149 2
150 2
151 2
152 40
153 40
154 2
155 2
156 2
157 2
158 1
159 40
160 20
161 10
162 2
163 2
164 2
165 40
166 10
167 2
168 2
169 2
170 40
171 20
172 2
173 2
174 2
175 2
176 40
177 40
178 2
179 2
180 2
181 1
182 40
183 2
184 1
185 20
186 10
187 2
188 2
189 40
190 2
191 2
192 1
193 40
194 40
195 2
196 2
197 2
198 2
199 40
200 2
201 40
202 20
203 10
204 1
205 40
206 20
207 10
208 2
209 2
210 40
211 40
212 1
213 40
214 40
215 2
216 40
217 40
218 2
219 2
220 2
221 2
222 1
223 40
224 20
225 10
226 2
227 2
228 2
229 2
230 1
231 20
232 2
233 2
234 2
235 2
236 1
237 40
238 40
239 20
240 40
241 1
242 40
243 2
244 2
245 40
246 20
247 2
248 2
249 2
250 1
251 40
252 10
253 40
254 40
255 10
256 1
257 40
258 40
259 2
260 2
261 40
262 2
263 2
264 40
265 40
266 10
267 2
268 2
269 2
270 2
271 1
272 40
273 40
274 10
275 2
276 2
277 2
278 1
279 40
280 20
281 10
282 2
283 2
284 2
285 40
286 20
287 10
288 2
289 40
290 40
291 10
292 2
293 2
294 2
295 2
296 1
297 40
298 20
299 20
300 10
301 1
302 40
303 20
304 10
305 2
306 2
307 2
308 2
309 40
310 20
311 2
312 2
313 1
314 40
315 10
316 2
317 2
318 2
319 1
320 40
321 20
322 10
323 2
324 2
325 2
326 40
327 20
328 40
329 20
330 10
331 2
332 40
333 40
334 10
335 2
336 2
337 2
338 20
339 10
340 2
341 2
342 2
343 1
344 20
345 10
346 2
347 1
348 40
349 40
350 2
351 2
352 1
353 40
354 10
355 2
356 40
357 20
358 10
359 2
360 2
361 2
362 2
363 40
364 20
365 10
366 2
367 2
368 2
369 1
370 40
371 40
372 2
373 2
374 1
375 20
376 10
377 2
378 20
379 10
380 1
381 20
382 10
383 2
384 2
385 1
386 40
387 40
388 2
389 2
390 2
391 40
392 40
393 2
394 2
395 2
396 2
397 1
398 40
399 1
400 40
401 40
402 2
403 2
404 1
405 40
406 40
407 2
408 2
409 1
410 40
411 40
412 10
413 2
414 1
415 40
416 2
417 2
418 2
419 2
420 1
421 40
422 20
423 10
424 2
425 2
426 2
427 40
428 10
429 2
430 2
431 1
432 40
433 40
434 2
435 2
436 2
437 40
438 2
439 2
440 40
441 20
442 10
443 2
444 2
445 2
446 2
447 40
448 20
449 2
450 1
451 40
452 20
453 10
454 2
455 2
456 20
457 2
458 2
459 2
460 2
461 1
462 40
463 2
464 2
465 2
466 1
467 40
468 1
469 40
470 20
471 2
472 2
473 2
474 2
475 40
476 20
477 2
478 2
479 2
480 1
481 20
482 2
483 2
484 2
485 1
486 40
487 20
488 2
489 2
490 2
491 2
492 1
493 40
494 40
495 2
496 1
497 40
498 10
499 2
500 40
501 40
502 10
503 2
504 2
505 1
506 40
507 10
508 2
509 40
510 40
511 2
512 2
513 2
514 2
515 1
516 40
517 20
518 2
519 2
520 1
521 40
522 40
523 10
524 2
525 2
526 2
527 2
528 1
529 40
530 10
531 2
532 2
533 2
534 40
535 40
536 2
537 2
538 2
539 1
540 40
541 40
542 10
543 2
544 2
545 2
546 2
547 1
548 40
549 20
550 10
551 2
552 1
553 40
554 40
555 10
556 2
557 40
558 20
559 2
560 2
561 2
562 2
563 1
564 20
565 10
566 2
567 2
568 40
569 10
570 2
571 2
572 2
573 1
574 40
575 20
576 2
577 1
578 20
579 10
580 40
581 20
582 10
583 2
584 2
585 2
586 2
587 1
588 40
589 20
590 10
591 2
592 2
593 20
594 2
595 2
596 2
597 2
598 40
599 40
600 20
601 40
602 20
603 10
604 2
605 2
606 40
607 40
608 10
609 1
610 20
611 2
612 2
613 1
614 20
615 10
616 2
617 1
618 40
619 10
620 2
621 2
622 2
623 2
624 40
625 40
626 2
627 2
628 2
629 40
630 20
631 10
632 2
633 2
634 2
635 2
636 40
637 2
638 2
639 2
640 20
641 2
642 2
643 2
644 2
645 1
646 20
647 10
648 40
649 40
650 10
651 2
652 2
653 2
654 2
655 1
656 40
657 40
658 10
659 2
660 2
661 2
662 2
663 40
664 2
665 1
666 40
667 40
668 10
669 2
670 2
671 1
672 40
673 20
674 2
675 2
676 40
677 20
678 2
679 2
680 1
681 40
682 40
683 10
684 2
685 2
686 2
687 2
688 40
689 20
690 10
691 2
692 2
693 2
694 20
695 2
696 2
697 2
698 2
699 40
700 10
701 1
702 40
703 20
704 40
705 40
706 2
707 1
708 20
709 2
710 2
711 2
712 2
713 1
714 40
715 40
716 10
717 2
718 2
719 2
720 1
DEPOT_SECTION
1
-1
EOF