SDVRP instances/custom_instances/p04_4_split0.sol
719 -1 3 516 519 515 517 518 670 667 668 665 669 666 630 633 631 -8 6 167 166 168 165 164 237 238 236 342 340 337 339 338 341 354 -11 10 565 566 564 563 661 657 658 375 374 376 183 182 181 498 496 497 -12 9 399 402 401 400 403 656 660 659 655 305 -16 578 577 325 326 525 526 135 134 -25 24 26 705 704 703 706 462 465 -30 29 31 216 215 220 107 102 -41 40 44 43 42 45 598 597 599 -51 261 260 262 671 674 672 673 263 264 269 -52 49 50 53 466 467 147 145 146 150 148 149 -64 282 281 283 278 279 206 204 468 469 473 -65 67 66 280 694 696 693 695 697 21 20 22 19 18 17 23 479 477 475 478 476 474 -71 74 73 72 521 524 520 522 523 527 493 495 494 492 616 615 614 -79 81 131 133 719 60 58 59 62 63 61 502 503 504 500 499 501 505 507 506 -85 83 87 575 576 573 574 76 75 77 709 708 707 712 711 710 315 317 314 -88 82 84 86 296 297 434 431 435 433 432 443 444 442 -94 89 91 90 92 93 95 371 369 370 373 372 227 229 224 226 -100 101 98 99 359 356 355 360 361 358 357 109 110 112 111 113 114 -108 104 103 105 106 219 218 221 217 27 28 617 256 257 125 126 -118 116 117 115 610 612 611 609 347 348 349 350 351 461 463 464 -119 70 57 56 580 579 583 585 437 438 436 -123 121 120 122 124 210 209 211 536 535 534 537 533 538 -127 80 78 128 132 713 714 715 716 717 718 -129 130 378 377 379 510 512 514 511 513 508 509 604 600 602 603 601 637 -139 137 136 138 295 292 290 291 293 289 294 288 457 459 455 458 456 460 530 529 531 532 528 -141 140 144 143 142 552 285 284 287 397 398 -171 418 416 419 417 415 186 185 184 187 544 541 545 543 542 539 546 540 591 590 587 692 689 -178 179 177 180 176 175 194 196 197 193 192 195 328 -191 189 188 190 239 240 97 96 286 5 4 7 608 -198 199 623 624 625 626 627 613 253 254 255 -207 205 208 680 683 682 681 685 684 686 245 247 246 249 244 248 470 472 471 -213 15 13 14 662 663 664 484 481 483 480 482 -214 212 652 649 298 654 650 648 300 299 653 647 651 592 595 596 593 594 -252 228 225 222 223 638 635 636 330 329 327 -268 266 267 270 265 161 163 160 158 162 159 241 242 243 34 32 33 259 618 -307 304 306 302 301 303 201 202 203 200 427 428 426 430 -331 334 335 568 570 567 569 572 571 234 232 230 235 231 233 556 561 559 557 558 562 560 -343 345 344 346 389 386 385 388 387 447 446 448 449 -353 352 607 606 605 701 702 -363 364 365 362 367 366 368 39 38 37 36 35 251 250 589 424 425 -381 384 699 698 68 69 644 640 643 639 423 422 421 420 -396 391 392 393 394 390 395 489 488 490 491 487 485 486 414 -405 407 406 404 408 275 274 276 273 272 271 277 582 584 586 581 -429 336 332 333 157 155 153 156 154 152 151 554 555 553 -445 440 441 439 313 316 318 380 383 382 675 676 -549 548 547 551 550 629 628 632 634 54 55 2 621 622 258 620 619 -588 47 46 48 323 320 321 319 322 324 642 641 -646 645 453 454 450 451 452 409 411 412 410 413 700 -677 678 679 312 310 311 308 309 172 173 174 170 169 687 691 688 690 0 





OBJ=
4535.511
BEST_KNOWN=
0.000